// Objective Function
max: 10 u1 + 31 u2;

/* Constraints */
10 u1 + 31 u2 - 100 v1 <= 0;
15 u1 + 25 u2 - 100 v1 <= 0;
20 u1 + 30 u2 - 100 v1 <= 0;
23 u1 + 23 u2 - 100 v1 <= 0;
30 u1 + 20 u2 - 100 v1 <= 0;
+ 100 v1 = 1;



